100 8
879 764
179 825
179 784
447 844
925 880
933 176
346 685
668 787
814 271
225 737
179 246
954 813
40 181
603 778
414 433
442 558
437 648
530 380
379 142
480 543
451 552
850 213
381 375
163 823
779 774
647 577
398 371
119 825
433 602
382 451
942 743
695 468
445 889
573 158
721 498
481 533
700 311
885 339
124 470
381 561
690 203
168 504
499 582
572 838
658 504
320 214
651 359
217 911
90 853
794 348
146 571
484 189
224 487
440 301
81 260
337 504
86 205
167 272
681 370
714 529
597 152
539 489
622 864
444 420
750 475
575 334
376 608
317 207
90 807
564 377
356 148
320 636
36 266
562 333
588 835
579 314
919 242
610 792
468 561
195 168
574 263
653 572
506 742
314 92
36 131
71 725
268 600
648 399
641 595
136 569
487 324
903 781
359 490
66 783
595 869
893 169
887 292
627 749
614 407
371 280
